File : Instances/p62
Use 143 s

34003

0 0 0 0 1 1 1 0 0 0 0 1 0 1 1 0 0 1 1 0 1 1 0 0 1 0 0 0 0 0 
18 6 21 24 21 6 21 17 18 17 4 17 13 13 6 18 13 20 24 24 18 21 5 24 13 18 24 14 4 5 6 4 4 21 18 6 20 20 24 21 18 20 6 4 20 4 13 21 14 14 24 24 24 21 20 6 11 20 18 11 4 17 18 20 13 11 5 14 6 11 18 6 6 20 5 13 20 5 20 24 13 17 20 11 4 13 6 5 24 18 17 6 11 11 5 13 11 6 17 17 17 21 11 18 4 24 4 24 24 13 14 4 18 6 11 20 17 11 17 20 14 11 17 4 4 21 21 11 4 17 11 24 11 20 5 20 13 13 17 14 6 18 6 11 11 5 24 21 18 11 24 17 5 17 20 11 5 21 13 13 13 17 20 24 5 17 5 4 13 21 5 20 14 14 4 5 24 14 4 20 5 21 21 6 11 20 11 13 17 21 21 21 6 4 18 6 18 21 14 6 
